p cnf 12 25
100 0
103 0
201 202  0
301 302  0
-101 0
-102 0
-201 -202 0
-301 -302 0
201 301  0
202 302  0
-200 0
-203 0
-300 0
-303 0
-201 -301 0
-202 -302 0
-100 201 301  0
-200 101 301  0
-300 101 201  0
-101 202 302  0
-201 102 302  0
-301 102 202  0
-102 203 303  0
-202 103 303  0
-302 103 203  0
